(set-info :status unknown)
(declare-fun C () (_ BitVec 31))
(declare-fun |ana_WillNotOverflowSignedAdd(%x, trunc(C))| () (_ BitVec 1))
(declare-fun u_%sx () (_ BitVec 8))
(declare-fun %x () (_ BitVec 17))
(assert
 (let (($x18189 (= |ana_WillNotOverflowSignedAdd(%x, trunc(C))| (_ bv1 1))))
 (let (($x18357 (= (bvadd ((_ sign_extend 1) %x) ((_ sign_extend 1) ((_ extract 16 0) C))) ((_ sign_extend 1) (bvadd %x ((_ extract 16 0) C))))))
 (and (=> $x18189 $x18357) (= u_%sx (_ bv1 8)) $x18189 (= (bvand C (bvshl (_ bv2147483647 31) (bvsub (_ bv17 31) (_ bv1 31)))) (_ bv0 31)) false))))
(check-sat)
